% demand
num_movements = 26;
loading_factor = [1650, 1200, 1400, 1300, 1850, 1750, 1300, 1250, 1800, 1200, 1400, 1500, 1000, 1950, 900, 1700, 1600, 1450, 1050, 1300, 1650, 950, 1350, 1150, 950, 1800];
pickup_time = [0, 0, 0, 1, 1, 2, 2, 2, 4, 4, 4, 5, 5, 5, 5, 5, 6, 7, 8, 9, 9, 10, 10, 10, 10, 10];
delivery_time = [2, 3, 2, 4, 4, 3, 5, 5, 5, 5, 5, 7, 7, 7, 7, 11, 7, 10, 10, 11, 11, 11, 11, 11, 11, 11];

% transporter definition
total_capacity = 11000;
num_decks = 4;
capacity = [3000, 3000, 1000, 4000];

% ways out of decks
num_ways_out = 2;
paths_out = array3d(decks, ways_out, decks, [
% ways out of deck d1
2, 4, 0, 0, 3, 4, 0, 0, 

% ways out of deck d2
4, 0, 0, 0, 0, 0, 0, 0,	

% ways out of deck d3
4, 0, 0, 0, 0, 0, 0, 0,	

% ways out of deck d4
0, 0, 0, 0,	0, 0, 0, 0,	

]);

